p cnf 136 744
-1 -2 -17 0
-1 -3 -18 0
-1 -4 -19 0
-1 -5 -20 0
-1 -6 -21 0
-1 -7 -22 0
-1 -8 -23 0
-1 -9 -24 0
-1 -10 -25 0
-1 -11 -26 0
-1 -12 -27 0
-1 -13 -28 0
-1 -14 -29 0
-1 -15 -30 0
-1 -16 -31 0
-2 -3 -32 0
-2 -4 -33 0
-2 -5 -34 0
-2 -6 -35 0
-2 -7 -36 0
-2 -8 -37 0
-2 -9 -38 0
-2 -10 -39 0
-2 -11 -40 0
-2 -12 -41 0
-2 -13 -42 0
-2 -14 -43 0
-2 -15 -44 0
-2 -16 -45 0
-3 -4 -46 0
-3 -5 -47 0
-3 -6 -48 0
-3 -7 -49 0
-3 -8 -50 0
-3 -9 -51 0
-3 -10 -52 0
-3 -11 -53 0
-3 -12 -54 0
-3 -13 -55 0
-3 -14 -56 0
-3 -15 -57 0
-3 -16 -58 0
-4 -5 -59 0
-4 -6 -60 0
-4 -7 -61 0
-4 -8 -62 0
-4 -9 -63 0
-4 -10 -64 0
-4 -11 -65 0
-4 -12 -66 0
-4 -13 -67 0
-4 -14 -68 0
-4 -15 -69 0
-4 -16 -70 0
-5 -6 -71 0
-5 -7 -72 0
-5 -8 -73 0
-5 -9 -74 0
-5 -10 -75 0
-5 -11 -76 0
-5 -12 -77 0
-5 -13 -78 0
-5 -14 -79 0
-5 -15 -80 0
-5 -16 -81 0
-6 -7 -82 0
-6 -8 -83 0
-6 -9 -84 0
-6 -10 -85 0
-6 -11 -86 0
-6 -12 -87 0
-6 -13 -88 0
-6 -14 -89 0
-6 -15 -90 0
-6 -16 -91 0
-7 -8 -92 0
-7 -9 -93 0
-7 -10 -94 0
-7 -11 -95 0
-7 -12 -96 0
-7 -13 -97 0
-7 -14 -98 0
-7 -15 -99 0
-7 -16 -100 0
-8 -9 -101 0
-8 -10 -102 0
-8 -11 -103 0
-8 -12 -104 0
-8 -13 -105 0
-8 -14 -106 0
-8 -15 -107 0
-8 -16 -108 0
-9 -10 -109 0
-9 -11 -110 0
-9 -12 -111 0
-9 -13 -112 0
-9 -14 -113 0
-9 -15 -114 0
-9 -16 -115 0
-10 -11 -116 0
-10 -12 -117 0
-10 -13 -118 0
-10 -14 -119 0
-10 -15 -120 0
-10 -16 -121 0
-11 -12 -122 0
-11 -13 -123 0
-11 -14 -124 0
-11 -15 -125 0
-11 -16 -126 0
-12 -13 -127 0
-12 -14 -128 0
-12 -15 -129 0
-12 -16 -130 0
-13 -14 -131 0
-13 -15 -132 0
-13 -16 -133 0
-14 -15 -134 0
-14 -16 -135 0
-15 -16 -136 0
-17 -18 -32 0
-17 -19 -33 0
-17 -20 -34 0
-17 -21 -35 0
-17 -22 -36 0
-17 -23 -37 0
-17 -24 -38 0
-17 -25 -39 0
-17 -26 -40 0
-17 -27 -41 0
-17 -28 -42 0
-17 -29 -43 0
-17 -30 -44 0
-17 -31 -45 0
-18 -19 -46 0
-18 -20 -47 0
-18 -21 -48 0
-18 -22 -49 0
-18 -23 -50 0
-18 -24 -51 0
-18 -25 -52 0
-18 -26 -53 0
-18 -27 -54 0
-18 -28 -55 0
-18 -29 -56 0
-18 -30 -57 0
-18 -31 -58 0
-19 -20 -59 0
-19 -21 -60 0
-19 -22 -61 0
-19 -23 -62 0
-19 -24 -63 0
-19 -25 -64 0
-19 -26 -65 0
-19 -27 -66 0
-19 -28 -67 0
-19 -29 -68 0
-19 -30 -69 0
-19 -31 -70 0
-20 -21 -71 0
-20 -22 -72 0
-20 -23 -73 0
-20 -24 -74 0
-20 -25 -75 0
-20 -26 -76 0
-20 -27 -77 0
-20 -28 -78 0
-20 -29 -79 0
-20 -30 -80 0
-20 -31 -81 0
-21 -22 -82 0
-21 -23 -83 0
-21 -24 -84 0
-21 -25 -85 0
-21 -26 -86 0
-21 -27 -87 0
-21 -28 -88 0
-21 -29 -89 0
-21 -30 -90 0
-21 -31 -91 0
-22 -23 -92 0
-22 -24 -93 0
-22 -25 -94 0
-22 -26 -95 0
-22 -27 -96 0
-22 -28 -97 0
-22 -29 -98 0
-22 -30 -99 0
-22 -31 -100 0
-23 -24 -101 0
-23 -25 -102 0
-23 -26 -103 0
-23 -27 -104 0
-23 -28 -105 0
-23 -29 -106 0
-23 -30 -107 0
-23 -31 -108 0
-24 -25 -109 0
-24 -26 -110 0
-24 -27 -111 0
-24 -28 -112 0
-24 -29 -113 0
-24 -30 -114 0
-24 -31 -115 0
-25 -26 -116 0
-25 -27 -117 0
-25 -28 -118 0
-25 -29 -119 0
-25 -30 -120 0
-25 -31 -121 0
-26 -27 -122 0
-26 -28 -123 0
-26 -29 -124 0
-26 -30 -125 0
-26 -31 -126 0
-27 -28 -127 0
-27 -29 -128 0
-27 -30 -129 0
-27 -31 -130 0
-28 -29 -131 0
-28 -30 -132 0
-28 -31 -133 0
-29 -30 -134 0
-29 -31 -135 0
-30 -31 -136 0
-32 -33 -46 0
-32 -34 -47 0
-32 -35 -48 0
-32 -36 -49 0
-32 -37 -50 0
-32 -38 -51 0
-32 -39 -52 0
-32 -40 -53 0
-32 -41 -54 0
-32 -42 -55 0
-32 -43 -56 0
-32 -44 -57 0
-32 -45 -58 0
-33 -34 -59 0
-33 -35 -60 0
-33 -36 -61 0
-33 -37 -62 0
-33 -38 -63 0
-33 -39 -64 0
-33 -40 -65 0
-33 -41 -66 0
-33 -42 -67 0
-33 -43 -68 0
-33 -44 -69 0
-33 -45 -70 0
-34 -35 -71 0
-34 -36 -72 0
-34 -37 -73 0
-34 -38 -74 0
-34 -39 -75 0
-34 -40 -76 0
-34 -41 -77 0
-34 -42 -78 0
-34 -43 -79 0
-34 -44 -80 0
-34 -45 -81 0
-35 -36 -82 0
-35 -37 -83 0
-35 -38 -84 0
-35 -39 -85 0
-35 -40 -86 0
-35 -41 -87 0
-35 -42 -88 0
-35 -43 -89 0
-35 -44 -90 0
-35 -45 -91 0
-36 -37 -92 0
-36 -38 -93 0
-36 -39 -94 0
-36 -40 -95 0
-36 -41 -96 0
-36 -42 -97 0
-36 -43 -98 0
-36 -44 -99 0
-36 -45 -100 0
-37 -38 -101 0
-37 -39 -102 0
-37 -40 -103 0
-37 -41 -104 0
-37 -42 -105 0
-37 -43 -106 0
-37 -44 -107 0
-37 -45 -108 0
-38 -39 -109 0
-38 -40 -110 0
-38 -41 -111 0
-38 -42 -112 0
-38 -43 -113 0
-38 -44 -114 0
-38 -45 -115 0
-39 -40 -116 0
-39 -41 -117 0
-39 -42 -118 0
-39 -43 -119 0
-39 -44 -120 0
-39 -45 -121 0
-40 -41 -122 0
-40 -42 -123 0
-40 -43 -124 0
-40 -44 -125 0
-40 -45 -126 0
-41 -42 -127 0
-41 -43 -128 0
-41 -44 -129 0
-41 -45 -130 0
-42 -43 -131 0
-42 -44 -132 0
-42 -45 -133 0
-43 -44 -134 0
-43 -45 -135 0
-44 -45 -136 0
-46 -47 -59 0
-46 -48 -60 0
-46 -49 -61 0
-46 -50 -62 0
-46 -51 -63 0
-46 -52 -64 0
-46 -53 -65 0
-46 -54 -66 0
-46 -55 -67 0
-46 -56 -68 0
-46 -57 -69 0
-46 -58 -70 0
-47 -48 -71 0
-47 -49 -72 0
-47 -50 -73 0
-47 -51 -74 0
-47 -52 -75 0
-47 -53 -76 0
-47 -54 -77 0
-47 -55 -78 0
-47 -56 -79 0
-47 -57 -80 0
-47 -58 -81 0
-48 -49 -82 0
-48 -50 -83 0
-48 -51 -84 0
-48 -52 -85 0
-48 -53 -86 0
-48 -54 -87 0
-48 -55 -88 0
-48 -56 -89 0
-48 -57 -90 0
-48 -58 -91 0
-49 -50 -92 0
-49 -51 -93 0
-49 -52 -94 0
-49 -53 -95 0
-49 -54 -96 0
-49 -55 -97 0
-49 -56 -98 0
-49 -57 -99 0
-49 -58 -100 0
-50 -51 -101 0
-50 -52 -102 0
-50 -53 -103 0
-50 -54 -104 0
-50 -55 -105 0
-50 -56 -106 0
-50 -57 -107 0
-50 -58 -108 0
-51 -52 -109 0
-51 -53 -110 0
-51 -54 -111 0
-51 -55 -112 0
-51 -56 -113 0
-51 -57 -114 0
-51 -58 -115 0
-52 -53 -116 0
-52 -54 -117 0
-52 -55 -118 0
-52 -56 -119 0
-52 -57 -120 0
-52 -58 -121 0
-53 -54 -122 0
-53 -55 -123 0
-53 -56 -124 0
-53 -57 -125 0
-53 -58 -126 0
-54 -55 -127 0
-54 -56 -128 0
-54 -57 -129 0
-54 -58 -130 0
-55 -56 -131 0
-55 -57 -132 0
-55 -58 -133 0
-56 -57 -134 0
-56 -58 -135 0
-57 -58 -136 0
-59 -60 -71 0
-59 -61 -72 0
-59 -62 -73 0
-59 -63 -74 0
-59 -64 -75 0
-59 -65 -76 0
-59 -66 -77 0
-59 -67 -78 0
-59 -68 -79 0
-59 -69 -80 0
-59 -70 -81 0
-60 -61 -82 0
-60 -62 -83 0
-60 -63 -84 0
-60 -64 -85 0
-60 -65 -86 0
-60 -66 -87 0
-60 -67 -88 0
-60 -68 -89 0
-60 -69 -90 0
-60 -70 -91 0
-61 -62 -92 0
-61 -63 -93 0
-61 -64 -94 0
-61 -65 -95 0
-61 -66 -96 0
-61 -67 -97 0
-61 -68 -98 0
-61 -69 -99 0
-61 -70 -100 0
-62 -63 -101 0
-62 -64 -102 0
-62 -65 -103 0
-62 -66 -104 0
-62 -67 -105 0
-62 -68 -106 0
-62 -69 -107 0
-62 -70 -108 0
-63 -64 -109 0
-63 -65 -110 0
-63 -66 -111 0
-63 -67 -112 0
-63 -68 -113 0
-63 -69 -114 0
-63 -70 -115 0
-64 -65 -116 0
-64 -66 -117 0
-64 -67 -118 0
-64 -68 -119 0
-64 -69 -120 0
-64 -70 -121 0
-65 -66 -122 0
-65 -67 -123 0
-65 -68 -124 0
-65 -69 -125 0
-65 -70 -126 0
-66 -67 -127 0
-66 -68 -128 0
-66 -69 -129 0
-66 -70 -130 0
-67 -68 -131 0
-67 -69 -132 0
-67 -70 -133 0
-68 -69 -134 0
-68 -70 -135 0
-69 -70 -136 0
-71 -72 -82 0
-71 -73 -83 0
-71 -74 -84 0
-71 -75 -85 0
-71 -76 -86 0
-71 -77 -87 0
-71 -78 -88 0
-71 -79 -89 0
-71 -80 -90 0
-71 -81 -91 0
-72 -73 -92 0
-72 -74 -93 0
-72 -75 -94 0
-72 -76 -95 0
-72 -77 -96 0
-72 -78 -97 0
-72 -79 -98 0
-72 -80 -99 0
-72 -81 -100 0
-73 -74 -101 0
-73 -75 -102 0
-73 -76 -103 0
-73 -77 -104 0
-73 -78 -105 0
-73 -79 -106 0
-73 -80 -107 0
-73 -81 -108 0
-74 -75 -109 0
-74 -76 -110 0
-74 -77 -111 0
-74 -78 -112 0
-74 -79 -113 0
-74 -80 -114 0
-74 -81 -115 0
-75 -76 -116 0
-75 -77 -117 0
-75 -78 -118 0
-75 -79 -119 0
-75 -80 -120 0
-75 -81 -121 0
-76 -77 -122 0
-76 -78 -123 0
-76 -79 -124 0
-76 -80 -125 0
-76 -81 -126 0
-77 -78 -127 0
-77 -79 -128 0
-77 -80 -129 0
-77 -81 -130 0
-78 -79 -131 0
-78 -80 -132 0
-78 -81 -133 0
-79 -80 -134 0
-79 -81 -135 0
-80 -81 -136 0
-82 -83 -92 0
-82 -84 -93 0
-82 -85 -94 0
-82 -86 -95 0
-82 -87 -96 0
-82 -88 -97 0
-82 -89 -98 0
-82 -90 -99 0
-82 -91 -100 0
-83 -84 -101 0
-83 -85 -102 0
-83 -86 -103 0
-83 -87 -104 0
-83 -88 -105 0
-83 -89 -106 0
-83 -90 -107 0
-83 -91 -108 0
-84 -85 -109 0
-84 -86 -110 0
-84 -87 -111 0
-84 -88 -112 0
-84 -89 -113 0
-84 -90 -114 0
-84 -91 -115 0
-85 -86 -116 0
-85 -87 -117 0
-85 -88 -118 0
-85 -89 -119 0
-85 -90 -120 0
-85 -91 -121 0
-86 -87 -122 0
-86 -88 -123 0
-86 -89 -124 0
-86 -90 -125 0
-86 -91 -126 0
-87 -88 -127 0
-87 -89 -128 0
-87 -90 -129 0
-87 -91 -130 0
-88 -89 -131 0
-88 -90 -132 0
-88 -91 -133 0
-89 -90 -134 0
-89 -91 -135 0
-90 -91 -136 0
-92 -93 -101 0
-92 -94 -102 0
-92 -95 -103 0
-92 -96 -104 0
-92 -97 -105 0
-92 -98 -106 0
-92 -99 -107 0
-92 -100 -108 0
-93 -94 -109 0
-93 -95 -110 0
-93 -96 -111 0
-93 -97 -112 0
-93 -98 -113 0
-93 -99 -114 0
-93 -100 -115 0
-94 -95 -116 0
-94 -96 -117 0
-94 -97 -118 0
-94 -98 -119 0
-94 -99 -120 0
-94 -100 -121 0
-95 -96 -122 0
-95 -97 -123 0
-95 -98 -124 0
-95 -99 -125 0
-95 -100 -126 0
-96 -97 -127 0
-96 -98 -128 0
-96 -99 -129 0
-96 -100 -130 0
-97 -98 -131 0
-97 -99 -132 0
-97 -100 -133 0
-98 -99 -134 0
-98 -100 -135 0
-99 -100 -136 0
-101 -102 -109 0
-101 -103 -110 0
-101 -104 -111 0
-101 -105 -112 0
-101 -106 -113 0
-101 -107 -114 0
-101 -108 -115 0
-102 -103 -116 0
-102 -104 -117 0
-102 -105 -118 0
-102 -106 -119 0
-102 -107 -120 0
-102 -108 -121 0
-103 -104 -122 0
-103 -105 -123 0
-103 -106 -124 0
-103 -107 -125 0
-103 -108 -126 0
-104 -105 -127 0
-104 -106 -128 0
-104 -107 -129 0
-104 -108 -130 0
-105 -106 -131 0
-105 -107 -132 0
-105 -108 -133 0
-106 -107 -134 0
-106 -108 -135 0
-107 -108 -136 0
-109 -110 -116 0
-109 -111 -117 0
-109 -112 -118 0
-109 -113 -119 0
-109 -114 -120 0
-109 -115 -121 0
-110 -111 -122 0
-110 -112 -123 0
-110 -113 -124 0
-110 -114 -125 0
-110 -115 -126 0
-111 -112 -127 0
-111 -113 -128 0
-111 -114 -129 0
-111 -115 -130 0
-112 -113 -131 0
-112 -114 -132 0
-112 -115 -133 0
-113 -114 -134 0
-113 -115 -135 0
-114 -115 -136 0
-116 -117 -122 0
-116 -118 -123 0
-116 -119 -124 0
-116 -120 -125 0
-116 -121 -126 0
-117 -118 -127 0
-117 -119 -128 0
-117 -120 -129 0
-117 -121 -130 0
-118 -119 -131 0
-118 -120 -132 0
-118 -121 -133 0
-119 -120 -134 0
-119 -121 -135 0
-120 -121 -136 0
-122 -123 -127 0
-122 -124 -128 0
-122 -125 -129 0
-122 -126 -130 0
-123 -124 -131 0
-123 -125 -132 0
-123 -126 -133 0
-124 -125 -134 0
-124 -126 -135 0
-125 -126 -136 0
-127 -128 -131 0
-127 -129 -132 0
-127 -130 -133 0
-128 -129 -134 0
-128 -130 -135 0
-129 -130 -136 0
-131 -132 -134 0
-131 -133 -135 0
-132 -133 -136 0
-134 -135 -136 0
1 2 17 0
2 3 32 0
3 4 46 0
4 5 59 0
5 6 71 0
6 7 82 0
7 8 92 0
8 9 101 0
9 10 109 0
10 11 116 0
11 12 122 0
12 13 127 0
13 14 131 0
14 15 134 0
15 16 136 0
17 19 33 0
18 20 47 0
19 21 60 0
20 22 72 0
21 23 83 0
22 24 93 0
23 25 102 0
24 26 110 0
25 27 117 0
26 28 123 0
27 29 128 0
28 30 132 0
29 31 135 0
32 35 48 0
33 36 61 0
34 37 73 0
35 38 84 0
36 39 94 0
37 40 103 0
38 41 111 0
39 42 118 0
40 43 124 0
41 44 129 0
42 45 133 0
46 50 62 0
47 51 74 0
48 52 85 0
49 53 95 0
50 54 104 0
51 55 112 0
52 56 119 0
53 57 125 0
54 58 130 0
59 64 75 0
60 65 86 0
61 66 96 0
62 67 105 0
63 68 113 0
64 69 120 0
65 70 126 0
71 77 87 0
72 78 97 0
73 79 106 0
74 80 114 0
75 81 121 0
82 89 98 0
83 90 107 0
84 91 115 0
92 100 108 0
